
   7    4
  10   10   10   10

   0   0   0   0   0   3 2 3 6 
   2  10  10  10  10   1 4 
   8  10  10  10  10   1 4 
   9  10  10  10  10   1 5 
   7  10  10  10  10   1 7
   8  10  10  10  10   1 7
   0   0   0   0   0   0 
